100
25 4
24 0
11 1
34 3
6 0
16 4
11 3
4 4
39 2
7 1
31 3
37 3
21 0
20 3
20 4
29 0
11 4
0 4
36 4
41 3
9 0
14 0
7 3
2 4
13 2
32 4
37 2
3 3
28 0
12 2
25 0
23 0
3 4
6 2
3 2
40 4
28 4
30 3
36 1
9 4
7 2
10 0
24 1
42 4
15 0
15 1
29 4
15 4
10 4
22 0
16 1
18 0
43 3
5 4
12 4
0 3
10 3
40 0
41 2
39 4
27 3
22 4
34 4
42 3
7 0
16 0
37 4
33 3
11 0
32 2
33 4
14 4
36 0
14 3
42 1
0 0
13 4
27 0
13 1
2 0
40 1
13 0
3 0
43 1
20 2
29 1
21 1
38 4
30 2
4 3
38 0
19 0
43 4
33 0
28 3
32 3
38 1
41 0
15 3
39 0

